p cnf 200 1110
-101 33 0
-101 38 0
-101 -69 0
-101 -91 0
-101 1 0
-101 -52 0
-101 -92 0
-101 -16 0
-101 -89 0
-101 86 0
101 -33 -38 69 91 -1 52 92 16 89 -86 0
-102 -34 0
-102 100 0
-102 -98 0
-102 5 0
-102 -89 0
-102 -8 0
-102 25 0
-102 67 0
-102 81 0
-102 -38 0
102 34 -100 98 -5 89 8 -25 -67 -81 38 0
-103 63 0
-103 -68 0
-103 54 0
-103 33 0
-103 91 0
-103 94 0
-103 -28 0
-103 -66 0
-103 32 0
-103 62 0
103 -63 68 -54 -33 -91 -94 28 66 -32 -62 0
-104 6 0
-104 -39 0
-104 -12 0
-104 13 0
-104 83 0
-104 20 0
-104 97 0
-104 -15 0
-104 44 0
-104 56 0
104 -6 39 12 -13 -83 -20 -97 15 -44 -56 0
-105 2 0
-105 -82 0
-105 83 0
-105 60 0
-105 70 0
-105 -15 0
-105 -25 0
-105 63 0
-105 56 0
-105 64 0
105 -2 82 -83 -60 -70 15 25 -63 -56 -64 0
-106 36 0
-106 -99 0
-106 25 0
-106 56 0
-106 -65 0
-106 18 0
-106 73 0
-106 -86 0
-106 -31 0
-106 49 0
106 -36 99 -25 -56 65 -18 -73 86 31 -49 0
-107 -22 0
-107 -37 0
-107 -25 0
-107 88 0
-107 19 0
-107 28 0
-107 3 0
-107 -79 0
-107 -49 0
-107 -7 0
107 22 37 25 -88 -19 -28 -3 79 49 7 0
-108 41 0
-108 -31 0
-108 44 0
-108 -64 0
-108 -63 0
-108 34 0
-108 -15 0
-108 83 0
-108 -51 0
-108 -10 0
108 -41 31 -44 64 63 -34 15 -83 51 10 0
-109 -91 0
-109 34 0
-109 73 0
-109 66 0
-109 32 0
-109 -53 0
-109 13 0
-109 -63 0
-109 100 0
-109 6 0
109 91 -34 -73 -66 -32 53 -13 63 -100 -6 0
-110 -35 0
-110 -75 0
-110 100 0
-110 -53 0
-110 -74 0
-110 37 0
-110 -14 0
-110 -41 0
-110 -34 0
-110 90 0
110 35 75 -100 53 74 -37 14 41 34 -90 0
101 102 103 104 105 106 107 108 109 110 0
-111 -91 0
-111 -41 0
-111 97 0
-111 -18 0
-111 15 0
-111 89 0
-111 -87 0
-111 -39 0
-111 -5 0
-111 -13 0
111 91 41 -97 18 -15 -89 87 39 5 13 0
-112 23 0
-112 13 0
-112 70 0
-112 -53 0
-112 18 0
-112 -10 0
-112 36 0
-112 -58 0
-112 8 0
-112 -68 0
112 -23 -13 -70 53 -18 10 -36 58 -8 68 0
-113 22 0
-113 -74 0
-113 30 0
-113 69 0
-113 -40 0
-113 -41 0
-113 -11 0
-113 -28 0
-113 -38 0
-113 -100 0
113 -22 74 -30 -69 40 41 11 28 38 100 0
-114 -55 0
-114 73 0
-114 -80 0
-114 17 0
-114 9 0
-114 -32 0
-114 -12 0
-114 77 0
-114 -82 0
-114 -38 0
114 55 -73 80 -17 -9 32 12 -77 82 38 0
-115 -98 0
-115 68 0
-115 35 0
-115 78 0
-115 -27 0
-115 -80 0
-115 54 0
-115 45 0
-115 -14 0
-115 38 0
115 98 -68 -35 -78 27 80 -54 -45 14 -38 0
-116 60 0
-116 58 0
-116 -73 0
-116 -42 0
-116 41 0
-116 -34 0
-116 -64 0
-116 -22 0
-116 35 0
-116 -16 0
116 -60 -58 73 42 -41 34 64 22 -35 16 0
-117 69 0
-117 92 0
-117 -54 0
-117 -14 0
-117 70 0
-117 -11 0
-117 67 0
-117 -25 0
-117 -97 0
-117 49 0
117 -69 -92 54 14 -70 11 -67 25 97 -49 0
-118 -91 0
-118 61 0
-118 71 0
-118 -24 0
-118 -4 0
-118 -58 0
-118 68 0
-118 44 0
-118 36 0
-118 51 0
118 91 -61 -71 24 4 58 -68 -44 -36 -51 0
-119 -60 0
-119 6 0
-119 99 0
-119 -51 0
-119 88 0
-119 -91 0
-119 65 0
-119 78 0
-119 -37 0
-119 -1 0
119 60 -6 -99 51 -88 91 -65 -78 37 1 0
-120 -41 0
-120 -52 0
-120 80 0
-120 -8 0
-120 -27 0
-120 81 0
-120 -20 0
-120 -98 0
-120 94 0
-120 -66 0
120 41 52 -80 8 27 -81 20 98 -94 66 0
111 112 113 114 115 116 117 118 119 120 0
-121 56 0
-121 -31 0
-121 -18 0
-121 4 0
-121 -15 0
-121 -68 0
-121 73 0
-121 85 0
-121 -88 0
-121 24 0
121 -56 31 18 -4 15 68 -73 -85 88 -24 0
-122 -12 0
-122 91 0
-122 45 0
-122 -65 0
-122 -95 0
-122 100 0
-122 54 0
-122 -38 0
-122 37 0
-122 34 0
122 12 -91 -45 65 95 -100 -54 38 -37 -34 0
-123 -67 0
-123 87 0
-123 2 0
-123 100 0
-123 -84 0
-123 46 0
-123 68 0
-123 27 0
-123 -63 0
-123 -59 0
123 67 -87 -2 -100 84 -46 -68 -27 63 59 0
-124 -58 0
-124 -60 0
-124 -3 0
-124 5 0
-124 -76 0
-124 -84 0
-124 -79 0
-124 34 0
-124 -80 0
-124 -59 0
124 58 60 3 -5 76 84 79 -34 80 59 0
-125 -45 0
-125 2 0
-125 84 0
-125 24 0
-125 -87 0
-125 40 0
-125 -61 0
-125 4 0
-125 -93 0
-125 66 0
125 45 -2 -84 -24 87 -40 61 -4 93 -66 0
-126 92 0
-126 -50 0
-126 -76 0
-126 45 0
-126 36 0
-126 -11 0
-126 40 0
-126 -35 0
-126 77 0
-126 47 0
126 -92 50 76 -45 -36 11 -40 35 -77 -47 0
-127 51 0
-127 -99 0
-127 22 0
-127 -38 0
-127 -75 0
-127 76 0
-127 -32 0
-127 -27 0
-127 15 0
-127 53 0
127 -51 99 -22 38 75 -76 32 27 -15 -53 0
-128 53 0
-128 -16 0
-128 -38 0
-128 -45 0
-128 49 0
-128 -91 0
-128 -41 0
-128 52 0
-128 -56 0
-128 26 0
128 -53 16 38 45 -49 91 41 -52 56 -26 0
-129 9 0
-129 96 0
-129 -37 0
-129 44 0
-129 95 0
-129 -61 0
-129 -72 0
-129 86 0
-129 -89 0
-129 65 0
129 -9 -96 37 -44 -95 61 72 -86 89 -65 0
-130 24 0
-130 -82 0
-130 -11 0
-130 60 0
-130 -85 0
-130 -30 0
-130 95 0
-130 8 0
-130 19 0
-130 -77 0
130 -24 82 11 -60 85 30 -95 -8 -19 77 0
121 122 123 124 125 126 127 128 129 130 0
-131 21 0
-131 -8 0
-131 19 0
-131 85 0
-131 -69 0
-131 -17 0
-131 -93 0
-131 -5 0
-131 -67 0
-131 -81 0
131 -21 8 -19 -85 69 17 93 5 67 81 0
-132 -40 0
-132 82 0
-132 -73 0
-132 4 0
-132 -18 0
-132 -13 0
-132 -70 0
-132 51 0
-132 7 0
-132 64 0
132 40 -82 73 -4 18 13 70 -51 -7 -64 0
-133 -84 0
-133 -100 0
-133 44 0
-133 -1 0
-133 -95 0
-133 72 0
-133 -15 0
-133 -59 0
-133 -75 0
-133 63 0
133 84 100 -44 1 95 -72 15 59 75 -63 0
-134 -32 0
-134 -67 0
-134 -45 0
-134 80 0
-134 98 0
-134 -36 0
-134 -75 0
-134 78 0
-134 70 0
-134 -91 0
134 32 67 45 -80 -98 36 75 -78 -70 91 0
-135 -6 0
-135 59 0
-135 -15 0
-135 11 0
-135 19 0
-135 -16 0
-135 99 0
-135 98 0
-135 -79 0
-135 -66 0
135 6 -59 15 -11 -19 16 -99 -98 79 66 0
-136 -16 0
-136 -14 0
-136 -96 0
-136 -30 0
-136 -56 0
-136 -80 0
-136 -62 0
-136 1 0
-136 79 0
-136 19 0
136 16 14 96 30 56 80 62 -1 -79 -19 0
-137 -31 0
-137 -36 0
-137 -68 0
-137 -98 0
-137 -94 0
-137 97 0
-137 72 0
-137 -9 0
-137 56 0
-137 64 0
137 31 36 68 98 94 -97 -72 9 -56 -64 0
-138 49 0
-138 7 0
-138 -74 0
-138 34 0
-138 100 0
-138 -87 0
-138 -24 0
-138 -37 0
-138 55 0
-138 22 0
138 -49 -7 74 -34 -100 87 24 37 -55 -22 0
-139 19 0
-139 85 0
-139 -79 0
-139 -99 0
-139 84 0
-139 44 0
-139 38 0
-139 94 0
-139 54 0
-139 -27 0
139 -19 -85 79 99 -84 -44 -38 -94 -54 27 0
-140 -97 0
-140 83 0
-140 67 0
-140 -46 0
-140 11 0
-140 23 0
-140 -47 0
-140 -35 0
-140 20 0
-140 -54 0
140 97 -83 -67 46 -11 -23 47 35 -20 54 0
131 132 133 134 135 136 137 138 139 140 0
-141 -44 0
-141 -39 0
-141 -79 0
-141 -42 0
-141 -99 0
-141 -46 0
-141 -95 0
-141 -36 0
-141 51 0
-141 32 0
141 44 39 79 42 99 46 95 36 -51 -32 0
-142 -96 0
-142 -71 0
-142 62 0
-142 56 0
-142 -65 0
-142 -22 0
-142 74 0
-142 8 0
-142 7 0
-142 12 0
142 96 71 -62 -56 65 22 -74 -8 -7 -12 0
-143 34 0
-143 -94 0
-143 92 0
-143 -9 0
-143 89 0
-143 -82 0
-143 88 0
-143 -20 0
-143 -60 0
-143 -93 0
143 -34 94 -92 9 -89 82 -88 20 60 93 0
-144 -19 0
-144 -71 0
-144 20 0
-144 -69 0
-144 12 0
-144 -81 0
-144 -61 0
-144 34 0
-144 -18 0
-144 -46 0
144 19 71 -20 69 -12 81 61 -34 18 46 0
-145 -80 0
-145 -45 0
-145 23 0
-145 -15 0
-145 86 0
-145 -96 0
-145 -48 0
-145 55 0
-145 42 0
-145 -52 0
145 80 45 -23 15 -86 96 48 -55 -42 52 0
-146 73 0
-146 -34 0
-146 -70 0
-146 -14 0
-146 87 0
-146 -69 0
-146 -10 0
-146 -26 0
-146 24 0
-146 35 0
146 -73 34 70 14 -87 69 10 26 -24 -35 0
-147 -34 0
-147 6 0
-147 -16 0
-147 -89 0
-147 76 0
-147 -63 0
-147 -31 0
-147 78 0
-147 -7 0
-147 -94 0
147 34 -6 16 89 -76 63 31 -78 7 94 0
-148 72 0
-148 64 0
-148 -85 0
-148 -84 0
-148 100 0
-148 -81 0
-148 -10 0
-148 66 0
-148 -80 0
-148 -2 0
148 -72 -64 85 84 -100 81 10 -66 80 2 0
-149 -30 0
-149 54 0
-149 78 0
-149 -27 0
-149 70 0
-149 -35 0
-149 24 0
-149 -48 0
-149 67 0
-149 8 0
149 30 -54 -78 27 -70 35 -24 48 -67 -8 0
-150 54 0
-150 9 0
-150 41 0
-150 -65 0
-150 -92 0
-150 -42 0
-150 24 0
-150 95 0
-150 29 0
-150 83 0
150 -54 -9 -41 65 92 42 -24 -95 -29 -83 0
141 142 143 144 145 146 147 148 149 150 0
-151 -47 0
-151 42 0
-151 -48 0
-151 -11 0
-151 -93 0
-151 -1 0
-151 13 0
-151 28 0
-151 -44 0
-151 -36 0
151 47 -42 48 11 93 1 -13 -28 44 36 0
-152 -56 0
-152 -36 0
-152 -3 0
-152 -95 0
-152 -33 0
-152 40 0
-152 85 0
-152 -11 0
-152 46 0
-152 59 0
152 56 36 3 95 33 -40 -85 11 -46 -59 0
-153 67 0
-153 25 0
-153 -4 0
-153 80 0
-153 -9 0
-153 59 0
-153 -62 0
-153 47 0
-153 57 0
-153 -81 0
153 -67 -25 4 -80 9 -59 62 -47 -57 81 0
-154 60 0
-154 -71 0
-154 -26 0
-154 -36 0
-154 1 0
-154 87 0
-154 -50 0
-154 78 0
-154 20 0
-154 96 0
154 -60 71 26 36 -1 -87 50 -78 -20 -96 0
-155 32 0
-155 67 0
-155 -66 0
-155 -16 0
-155 62 0
-155 -5 0
-155 -22 0
-155 -98 0
-155 -80 0
-155 -9 0
155 -32 -67 66 16 -62 5 22 98 80 9 0
-156 20 0
-156 43 0
-156 -90 0
-156 -3 0
-156 50 0
-156 -29 0
-156 -69 0
-156 1 0
-156 -5 0
-156 -67 0
156 -20 -43 90 3 -50 29 69 -1 5 67 0
-157 -98 0
-157 -7 0
-157 -16 0
-157 82 0
-157 33 0
-157 -8 0
-157 -23 0
-157 -2 0
-157 91 0
-157 -4 0
157 98 7 16 -82 -33 8 23 2 -91 4 0
-158 -57 0
-158 -7 0
-158 -24 0
-158 64 0
-158 11 0
-158 -12 0
-158 -90 0
-158 -20 0
-158 -2 0
-158 -98 0
158 57 7 24 -64 -11 12 90 20 2 98 0
-159 67 0
-159 -27 0
-159 16 0
-159 61 0
-159 -42 0
-159 89 0
-159 -38 0
-159 -1 0
-159 97 0
-159 -76 0
159 -67 27 -16 -61 42 -89 38 1 -97 76 0
-160 99 0
-160 34 0
-160 -64 0
-160 -67 0
-160 31 0
-160 -53 0
-160 -69 0
-160 -25 0
-160 -96 0
-160 52 0
160 -99 -34 64 67 -31 53 69 25 96 -52 0
151 152 153 154 155 156 157 158 159 160 0
-161 -1 0
-161 -37 0
-161 34 0
-161 -10 0
-161 -46 0
-161 -99 0
-161 43 0
-161 89 0
-161 58 0
-161 -90 0
161 1 37 -34 10 46 99 -43 -89 -58 90 0
-162 -60 0
-162 -2 0
-162 62 0
-162 -57 0
-162 94 0
-162 3 0
-162 -74 0
-162 -23 0
-162 51 0
-162 5 0
162 60 2 -62 57 -94 -3 74 23 -51 -5 0
-163 88 0
-163 32 0
-163 20 0
-163 84 0
-163 -47 0
-163 26 0
-163 80 0
-163 44 0
-163 -68 0
-163 48 0
163 -88 -32 -20 -84 47 -26 -80 -44 68 -48 0
-164 -67 0
-164 -86 0
-164 -72 0
-164 -14 0
-164 -83 0
-164 -96 0
-164 23 0
-164 18 0
-164 -7 0
-164 64 0
164 67 86 72 14 83 96 -23 -18 7 -64 0
-165 58 0
-165 -87 0
-165 -26 0
-165 88 0
-165 6 0
-165 34 0
-165 -48 0
-165 -59 0
-165 -18 0
-165 -67 0
165 -58 87 26 -88 -6 -34 48 59 18 67 0
-166 -73 0
-166 70 0
-166 -88 0
-166 96 0
-166 47 0
-166 24 0
-166 59 0
-166 -74 0
-166 -27 0
-166 -50 0
166 73 -70 88 -96 -47 -24 -59 74 27 50 0
-167 62 0
-167 -65 0
-167 -24 0
-167 27 0
-167 -47 0
-167 76 0
-167 -42 0
-167 -29 0
-167 89 0
-167 6 0
167 -62 65 24 -27 47 -76 42 29 -89 -6 0
-168 -100 0
-168 -17 0
-168 39 0
-168 34 0
-168 11 0
-168 74 0
-168 -29 0
-168 19 0
-168 -44 0
-168 2 0
168 100 17 -39 -34 -11 -74 29 -19 44 -2 0
-169 17 0
-169 100 0
-169 -77 0
-169 91 0
-169 19 0
-169 -16 0
-169 35 0
-169 -7 0
-169 32 0
-169 31 0
169 -17 -100 77 -91 -19 16 -35 7 -32 -31 0
-170 -9 0
-170 -80 0
-170 -84 0
-170 55 0
-170 -63 0
-170 -64 0
-170 43 0
-170 31 0
-170 -87 0
-170 1 0
170 9 80 84 -55 63 64 -43 -31 87 -1 0
161 162 163 164 165 166 167 168 169 170 0
-171 -97 0
-171 59 0
-171 22 0
-171 20 0
-171 48 0
-171 100 0
-171 65 0
-171 -61 0
-171 85 0
-171 -51 0
171 97 -59 -22 -20 -48 -100 -65 61 -85 51 0
-172 -96 0
-172 -64 0
-172 89 0
-172 -29 0
-172 27 0
-172 40 0
-172 -93 0
-172 13 0
-172 -81 0
-172 69 0
172 96 64 -89 29 -27 -40 93 -13 81 -69 0
-173 38 0
-173 73 0
-173 -74 0
-173 35 0
-173 59 0
-173 1 0
-173 78 0
-173 -7 0
-173 -62 0
-173 -100 0
173 -38 -73 74 -35 -59 -1 -78 7 62 100 0
-174 -71 0
-174 48 0
-174 -55 0
-174 -68 0
-174 -34 0
-174 87 0
-174 46 0
-174 69 0
-174 91 0
-174 -76 0
174 71 -48 55 68 34 -87 -46 -69 -91 76 0
-175 -29 0
-175 -50 0
-175 -28 0
-175 -22 0
-175 -80 0
-175 -23 0
-175 21 0
-175 94 0
-175 -42 0
-175 -24 0
175 29 50 28 22 80 23 -21 -94 42 24 0
-176 -10 0
-176 51 0
-176 -30 0
-176 -64 0
-176 87 0
-176 55 0
-176 -35 0
-176 -47 0
-176 11 0
-176 96 0
176 10 -51 30 64 -87 -55 35 47 -11 -96 0
-177 75 0
-177 54 0
-177 77 0
-177 64 0
-177 -40 0
-177 -50 0
-177 -17 0
-177 38 0
-177 65 0
-177 -4 0
177 -75 -54 -77 -64 40 50 17 -38 -65 4 0
-178 -91 0
-178 1 0
-178 -58 0
-178 87 0
-178 -22 0
-178 -67 0
-178 -55 0
-178 77 0
-178 42 0
-178 -27 0
178 91 -1 58 -87 22 67 55 -77 -42 27 0
-179 -48 0
-179 93 0
-179 -78 0
-179 21 0
-179 19 0
-179 67 0
-179 -62 0
-179 -66 0
-179 -76 0
-179 46 0
179 48 -93 78 -21 -19 -67 62 66 76 -46 0
-180 62 0
-180 -61 0
-180 24 0
-180 36 0
-180 -88 0
-180 -59 0
-180 46 0
-180 -81 0
-180 66 0
-180 -55 0
180 -62 61 -24 -36 88 59 -46 81 -66 55 0
171 172 173 174 175 176 177 178 179 180 0
-181 -74 0
-181 -14 0
-181 75 0
-181 68 0
-181 -30 0
-181 -32 0
-181 5 0
-181 22 0
-181 11 0
-181 40 0
181 74 14 -75 -68 30 32 -5 -22 -11 -40 0
-182 -11 0
-182 -23 0
-182 -67 0
-182 87 0
-182 -60 0
-182 7 0
-182 -80 0
-182 -65 0
-182 41 0
-182 -48 0
182 11 23 67 -87 60 -7 80 65 -41 48 0
-183 69 0
-183 -36 0
-183 -4 0
-183 55 0
-183 -25 0
-183 -5 0
-183 21 0
-183 -75 0
-183 79 0
-183 86 0
183 -69 36 4 -55 25 5 -21 75 -79 -86 0
-184 41 0
-184 54 0
-184 8 0
-184 10 0
-184 46 0
-184 50 0
-184 80 0
-184 60 0
-184 12 0
-184 17 0
184 -41 -54 -8 -10 -46 -50 -80 -60 -12 -17 0
-185 5 0
-185 15 0
-185 98 0
-185 40 0
-185 90 0
-185 86 0
-185 100 0
-185 -31 0
-185 -16 0
-185 77 0
185 -5 -15 -98 -40 -90 -86 -100 31 16 -77 0
-186 66 0
-186 -71 0
-186 -39 0
-186 -34 0
-186 -48 0
-186 -18 0
-186 82 0
-186 -93 0
-186 76 0
-186 42 0
186 -66 71 39 34 48 18 -82 93 -76 -42 0
-187 58 0
-187 76 0
-187 66 0
-187 26 0
-187 -87 0
-187 -99 0
-187 -42 0
-187 79 0
-187 -46 0
-187 -68 0
187 -58 -76 -66 -26 87 99 42 -79 46 68 0
-188 -20 0
-188 63 0
-188 67 0
-188 39 0
-188 -11 0
-188 -33 0
-188 69 0
-188 -83 0
-188 -59 0
-188 -62 0
188 20 -63 -67 -39 11 33 -69 83 59 62 0
-189 -52 0
-189 -83 0
-189 -86 0
-189 -89 0
-189 34 0
-189 -57 0
-189 65 0
-189 -16 0
-189 -94 0
-189 66 0
189 52 83 86 89 -34 57 -65 16 94 -66 0
-190 -16 0
-190 24 0
-190 -5 0
-190 -15 0
-190 25 0
-190 -85 0
-190 -37 0
-190 93 0
-190 -13 0
-190 -6 0
190 16 -24 5 15 -25 85 37 -93 13 6 0
181 182 183 184 185 186 187 188 189 190 0
-191 -64 0
-191 -65 0
-191 45 0
-191 49 0
-191 5 0
-191 54 0
-191 47 0
-191 1 0
-191 -89 0
-191 10 0
191 64 65 -45 -49 -5 -54 -47 -1 89 -10 0
-192 -60 0
-192 -38 0
-192 26 0
-192 25 0
-192 -69 0
-192 -80 0
-192 22 0
-192 -67 0
-192 -97 0
-192 19 0
192 60 38 -26 -25 69 80 -22 67 97 -19 0
-193 -81 0
-193 -4 0
-193 -24 0
-193 -14 0
-193 -16 0
-193 -59 0
-193 73 0
-193 6 0
-193 7 0
-193 84 0
193 81 4 24 14 16 59 -73 -6 -7 -84 0
-194 69 0
-194 83 0
-194 -52 0
-194 68 0
-194 -78 0
-194 -21 0
-194 -38 0
-194 100 0
-194 92 0
-194 -32 0
194 -69 -83 52 -68 78 21 38 -100 -92 32 0
-195 58 0
-195 -90 0
-195 -10 0
-195 37 0
-195 29 0
-195 6 0
-195 -82 0
-195 2 0
-195 87 0
-195 5 0
195 -58 90 10 -37 -29 -6 82 -2 -87 -5 0
-196 -12 0
-196 49 0
-196 41 0
-196 -82 0
-196 70 0
-196 -80 0
-196 -44 0
-196 51 0
-196 -35 0
-196 78 0
196 12 -49 -41 82 -70 80 44 -51 35 -78 0
-197 43 0
-197 -76 0
-197 31 0
-197 -60 0
-197 -64 0
-197 -71 0
-197 40 0
-197 -81 0
-197 -54 0
-197 -80 0
197 -43 76 -31 60 64 71 -40 81 54 80 0
-198 83 0
-198 -58 0
-198 -52 0
-198 -3 0
-198 75 0
-198 -82 0
-198 -12 0
-198 -36 0
-198 -25 0
-198 51 0
198 -83 58 52 3 -75 82 12 36 25 -51 0
-199 -53 0
-199 -94 0
-199 -86 0
-199 90 0
-199 -25 0
-199 28 0
-199 47 0
-199 -78 0
-199 -67 0
-199 61 0
199 53 94 86 -90 25 -28 -47 78 67 -61 0
-200 -31 0
-200 -13 0
-200 14 0
-200 88 0
-200 -55 0
-200 -61 0
-200 75 0
-200 48 0
-200 -69 0
-200 -56 0
200 31 13 -14 -88 55 61 -75 -48 69 56 0
191 192 193 194 195 196 197 198 199 200 0
